1 1 -2 0
1 -1 -3 0
1 1 -4 0
1 1 -5 0
1 -1 -6 0
1 -2 -4 0
1 7 8 0
1 7 9 0
1 -7 3 0
1 -7 -5 0
1 9 8 0
1 9 3 0
1 9 4 0
1 9 -10 0
1 9 -11 0
1 -4 -12 0
1 -4 13 0
1 -4 14 0
1 -4 1 0
1 4 6 0
1 6 -15 0
1 6 -16 0
1 6 17 0
1 3 -15 0
1 -3 -9 0
1 -3 -17 0
1 3 18 0
1 -3 -7 0
1 3 -5 0
1 5 15 0
1 -5 19 0
1 5 -9 0
1 -5 2 0
1 5 3 0
1 -5 -20 0
1 5 -18 0
1 14 -21 0
1 -14 -10 0
1 14 -6 0
1 16 -8 0
1 16 -21 0
1 -16 -10 0
1 -13 8 0
1 13 -22 0
1 13 11 0
1 13 -20 0
1 -13 6 0
1 -12 -8 0
1 -12 -23 0
1 12 22 0
1 12 -4 0
1 12 -13 0
1 -12 6 0
1 -11 -12 0
1 11 16 0
1 11 -24 0
1 11 -25 0
1 11 26 0
1 -11 14 0
1 -11 -27 0
1 -21 -28 0
1 21 -29 0
1 -21 -11 0
1 21 13 0
1 -21 -14 0
1 -21 -27 0
1 10 -8 0
1 -10 12 0
1 10 -16 0
1 -10 -9 0
1 10 -24 0
1 -10 30 0
1 8 -31 0
1 -8 16 0
1 8 9 0
1 -8 30 0
1 -8 -17 0
1 8 -7 0
1 8 -27 0
1 -25 -21 0
1 25 23 0
1 25 22 0
1 25 32 0
1 29 15 0
1 29 22 0
1 29 -25 0
1 -29 -11 0
1 -29 32 0
1 -29 -33 0
1 34 21 0
1 34 23 0
1 -34 -30 0
1 -34 -11 0
1 34 33 0
1 28 22 0
1 28 -34 0
1 33 -29 0
1 -33 -35 0
1 33 -34 0
1 33 13 0
1 33 -36 0
1 -33 -37 0
1 -22 -28 0
1 22 -29 0
1 22 -35 0
1 22 34 0
1 22 13 0
1 -32 -12 0
1 -32 35 0
1 32 -34 0
1 -32 25 0
1 -32 -13 0
1 -32 38 0
1 -32 -37 0
1 -32 -27 0
1 23 28 0
1 -23 29 0
1 23 39 0
1 23 40 0
1 23 24 0
1 23 -34 0
1 -23 -25 0
1 -23 -32 0
1 23 37 0
1 -23 27 0
1 -41 42 0
1 -43 -2 0
1 43 44 0
1 43 45 0
1 -43 41 0
1 -46 44 0
1 46 47 0
1 -48 49 0
1 -48 -42 0
1 48 50 0
1 48 51 0
1 -48 44 0
1 48 -45 0
1 48 52 0
1 48 -46 0
1 -42 -53 0
1 -42 48 0
1 -42 43 0
1 42 45 0
1 -42 -54 0
1 -42 -20 0
1 -42 -18 0
1 -45 53 0
1 -45 55 0
1 45 -43 0
1 -49 56 0
1 -49 53 0
1 -49 57 0
1 49 48 0
1 -49 -43 0
1 -49 -58 0
1 44 53 0
1 44 -59 0
1 44 -43 0
1 -44 -60 0
1 44 -54 0
1 -44 41 0
1 18 -42 0
1 -18 61 0
1 18 19 0
1 -18 -52 0
1 18 -47 0
1 18 -62 0
1 18 5 0
1 19 -61 0
1 19 -16 0
1 19 -50 0
1 -19 47 0
1 19 5 0
1 20 55 0
1 -20 -61 0
1 -20 50 0
1 -20 -63 0
1 -20 -64 0
1 20 -45 0
1 -20 -52 0
1 20 13 0
1 20 -65 0
1 20 -66 0
1 20 -5 0
1 55 -50 0
1 -55 45 0
1 -55 -66 0
1 -50 67 0
1 -50 15 0
1 50 -19 0
1 50 -68 0
1 -50 48 0
1 50 -30 0
1 -50 17 0
1 -50 -18 0
1 50 46 0
1 -47 69 0
1 -47 -19 0
1 -47 48 0
1 -47 70 0
1 -47 -30 0
1 47 20 0
1 -47 71 0
1 -47 18 0
1 61 -69 0
1 -61 55 0
1 61 72 0
1 -61 -19 0
1 61 -48 0
1 61 54 0
1 -61 46 0
1 -52 73 0
1 -52 53 0
1 52 19 0
1 -52 -70 0
1 52 -20 0
1 52 -74 0
1 -52 18 0
1 17 -15 0
1 -17 -50 0
1 -17 63 0
1 17 64 0
1 17 3 0
1 -17 4 0
1 17 10 0
1 17 -25 0
1 17 47 0
1 -17 -65 0
1 -17 -6 0
1 15 -29 0
1 15 -64 0
1 -15 -3 0
1 15 -4 0
1 -15 -17 0
1 15 -47 0
1 -15 66 0
1 -15 -6 0
1 -30 75 0
1 -30 -8 0
1 30 67 0
1 30 50 0
1 -30 -64 0
1 -30 -47 0
1 -30 -65 0
1 30 -66 0
1 30 -76 0
1 -67 8 0
1 67 73 0
1 67 -50 0
1 67 64 0
1 67 -77 0
1 -67 -78 0
1 67 -10 0
1 -67 -47 0
1 -67 -65 0
1 -67 -66 0
1 -67 -76 0
1 64 67 0
1 64 55 0
1 -64 79 0
1 64 24 0
1 64 17 0
1 64 -20 0
1 -64 -66 0
1 66 -55 0
1 66 80 0
1 66 -40 0
1 66 81 0
1 66 -20 0
1 66 -82 0
1 -63 -83 0
1 -63 -17 0
1 -63 -65 0
1 -63 -84 0
1 65 67 0
1 65 -15 0
1 -65 55 0
1 65 -83 0
1 -65 70 0
1 -24 -8 0
1 -24 -21 0
1 -24 -64 0
1 -24 -70 0
1 -24 -78 0
1 -24 32 0
1 -27 8 0
1 27 75 0
1 27 -21 0
1 -27 23 0
1 -40 -85 0
1 40 -23 0
1 40 -64 0
1 40 77 0
1 -40 86 0
1 -40 26 0
1 -40 -32 0
1 40 -66 0
1 40 -87 0
1 -40 76 0
1 87 75 0
1 87 85 0
1 -87 86 0
1 -87 26 0
1 87 32 0
1 -87 76 0
1 -87 -84 0
1 -78 -75 0
1 78 -88 0
1 -78 40 0
1 -78 4 0
1 78 -89 0
1 -78 30 0
1 -78 90 0
1 78 -27 0
1 75 91 0
1 -75 -35 0
1 -75 40 0
1 -75 -24 0
1 75 -78 0
1 75 -6 0
1 75 92 0
1 75 37 0
1 75 -87 0
1 77 93 0
1 77 94 0
1 -77 3 0
1 77 -95 0
1 77 92 0
1 -77 96 0
1 77 -82 0
1 77 -76 0
1 77 27 0
1 76 -40 0
1 -76 77 0
1 76 30 0
1 76 -92 0
1 76 96 0
1 -76 -87 0
1 -76 97 0
1 -76 27 0
1 -35 -22 0
1 35 86 0
1 35 26 0
1 35 32 0
1 35 33 0
1 35 37 0
1 37 -31 0
1 -37 85 0
1 37 23 0
1 -37 22 0
1 37 78 0
1 -88 -75 0
1 -88 31 0
1 88 -90 0
1 88 86 0
1 -88 -26 0
1 -88 -36 0
1 -90 31 0
1 -90 -85 0
1 90 -39 0
1 90 -98 0
1 90 -26 0
1 90 -36 0
1 26 -99 0
1 -26 -85 0
1 26 -100 0
1 -26 88 0
1 26 40 0
1 -26 11 0
1 26 101 0
1 -26 -90 0
1 -26 -37 0
1 -85 99 0
1 -85 102 0
1 -85 35 0
1 85 103 0
1 -86 99 0
1 86 -104 0
1 86 88 0
1 -86 -105 0
1 86 -37 0
1 -31 8 0
1 -31 -104 0
1 31 88 0
1 -31 -35 0
1 -31 -40 0
1 -31 103 0
1 -31 86 0
1 -31 -105 0
1 -31 -92 0
1 -100 -39 0
1 100 -98 0
1 -100 38 0
1 100 -106 0
1 -100 -36 0
1 -106 -85 0
1 106 -100 0
1 -106 -26 0
1 -106 36 0
1 -107 -85 0
1 107 39 0
1 107 -104 0
1 107 -98 0
1 -107 -38 0
1 107 -36 0
1 108 85 0
1 108 -107 0
1 -108 -98 0
1 -108 -26 0
1 36 107 0
1 -36 -100 0
1 36 -88 0
1 36 -108 0
1 -36 33 0
1 -36 -90 0
1 -36 -109 0
1 -98 -110 0
1 98 107 0
1 -98 22 0
1 98 -111 0
1 -98 108 0
1 98 -106 0
1 -98 36 0
1 -38 -110 0
1 38 -99 0
1 38 107 0
1 -38 -111 0
1 38 -103 0
1 -38 -108 0
1 39 -110 0
1 -39 -112 0
1 -39 -100 0
1 -39 111 0
1 39 -106 0
1 -39 90 0
1 113 -114 0
1 113 115 0
1 -113 116 0
1 -113 117 0
1 -113 -41 0
1 -115 114 0
1 115 -118 0
1 -115 -119 0
1 115 -117 0
1 -120 121 0
1 120 -122 0
1 120 117 0
1 120 -46 0
1 -120 123 0
1 51 -114 0
1 -51 121 0
1 51 -48 0
1 -51 124 0
1 51 -125 0
1 117 51 0
1 -117 126 0
1 -117 -120 0
1 -117 113 0
1 -118 117 0
1 118 127 0
1 118 -128 0
1 -118 -57 0
1 -118 129 0
1 -118 62 0
1 118 120 0
1 -118 -113 0
1 116 -127 0
1 116 -51 0
1 -116 129 0
1 -116 -130 0
1 116 -113 0
1 114 -131 0
1 -114 132 0
1 114 133 0
1 -114 51 0
1 114 -134 0
1 114 113 0
1 -62 -118 0
1 62 121 0
1 62 18 0
1 -62 125 0
1 -57 49 0
1 -57 -118 0
1 57 44 0
1 57 -62 0
1 57 135 0
1 -58 136 0
1 -58 -121 0
1 -58 122 0
1 58 137 0
1 58 44 0
1 58 -20 0
1 58 -134 0
1 58 125 0
1 58 -138 0
1 -59 136 0
1 59 -55 0
1 59 121 0
1 59 122 0
1 59 -137 0
1 59 -125 0
1 59 -135 0
1 -135 -73 0
1 135 59 0
1 135 57 0
1 -135 122 0
1 -135 -139 0
1 135 -140 0
1 -122 73 0
1 -122 -53 0
1 -122 -141 0
1 122 -139 0
1 122 140 0
1 122 -135 0
1 -125 142 0
1 125 57 0
1 125 51 0
1 125 -139 0
1 125 -143 0
1 -125 58 0
1 -125 144 0
1 -121 127 0
1 121 -59 0
1 -121 57 0
1 -121 -51 0
1 -121 143 0
1 -121 -58 0
1 -121 62 0
1 54 136 0
1 -54 -49 0
1 -54 122 0
1 54 -145 0
1 -54 -52 0
1 -54 -17 0
1 54 135 0
1 -53 49 0
1 -53 -137 0
1 -53 145 0
1 53 135 0
1 -140 -136 0
1 -140 -146 0
1 140 -61 0
1 -140 147 0
1 -140 -52 0
1 140 135 0
1 140 -138 0
1 73 136 0
1 -73 67 0
1 -73 -146 0
1 73 -137 0
1 -73 -140 0
1 73 52 0
1 73 -135 0
1 136 69 0
1 -136 73 0
1 -136 -148 0
1 136 83 0
1 -136 140 0
1 -136 54 0
1 145 -69 0
1 145 53 0
1 -145 -59 0
1 145 149 0
1 -145 -70 0
1 145 -140 0
1 145 150 0
1 -145 84 0
1 -138 -142 0
1 138 73 0
1 138 -59 0
1 138 137 0
1 -138 -148 0
1 138 -139 0
1 -138 140 0
1 138 150 0
1 -138 151 0
1 -137 -142 0
1 137 73 0
1 137 -53 0
1 137 148 0
1 -137 152 0
1 137 140 0
1 -137 -138 0
1 -137 151 0
1 -70 61 0
1 -70 50 0
1 -70 60 0
1 -70 52 0
1 -70 47 0
1 -69 -136 0
1 -69 -56 0
1 69 61 0
1 69 -50 0
1 -69 -63 0
1 -69 145 0
1 69 -147 0
1 -69 -65 0
1 83 -136 0
1 83 72 0
1 -83 63 0
1 -83 -40 0
1 -83 -60 0
1 -83 -84 0
1 84 -136 0
1 -84 -56 0
1 84 72 0
1 84 -151 0
1 146 69 0
1 -146 73 0
1 -146 -153 0
1 146 -94 0
1 -146 -80 0
1 -146 83 0
1 -146 -70 0
1 146 -140 0
1 -146 -147 0
1 146 82 0
1 -146 84 0
1 -147 -69 0
1 147 154 0
1 -147 -94 0
1 -147 -45 0
1 147 -140 0
1 147 96 0
1 -147 84 0
1 -56 -49 0
1 56 73 0
1 -56 154 0
1 -56 83 0
1 56 60 0
1 56 -140 0
1 -56 155 0
1 -56 -156 0
1 56 -150 0
1 60 -69 0
1 60 56 0
1 60 -154 0
1 60 148 0
1 -60 -83 0
1 -60 44 0
1 60 157 0
1 -60 -155 0
1 60 -156 0
1 -60 -150 0
1 -80 -146 0
1 -80 -72 0
1 80 -68 0
1 -80 -63 0
1 80 147 0
1 80 -71 0
1 80 65 0
1 80 66 0
1 -82 -146 0
1 82 68 0
1 82 -63 0
1 -82 66 0
1 -82 74 0
1 -82 -71 0
1 -82 -65 0
1 -82 150 0
1 82 -76 0
1 -94 -158 0
1 -94 72 0
1 94 68 0
1 -94 159 0
1 -94 160 0
1 -94 79 0
1 -94 -71 0
1 94 -81 0
1 -94 76 0
1 96 -94 0
1 96 -147 0
1 96 -71 0
1 -96 -158 0
1 96 -156 0
1 96 81 0
1 96 76 0
1 68 -71 0
1 -68 161 0
1 -68 93 0
1 -68 94 0
1 68 -162 0
1 -68 92 0
1 -68 82 0
1 68 -84 0
1 -71 -93 0
1 71 80 0
1 71 83 0
1 -71 162 0
1 -71 105 0
1 71 -47 0
1 71 92 0
1 71 163 0
1 71 -82 0
1 -71 -84 0
1 -72 -161 0
1 -72 -164 0
1 -72 165 0
1 72 154 0
1 72 -94 0
1 -72 83 0
1 -72 -166 0
1 72 -82 0
1 -72 -84 0
1 -74 -161 0
1 -74 167 0
1 74 154 0
1 74 -94 0
1 74 83 0
1 74 162 0
1 -74 166 0
1 -74 -155 0
1 -74 96 0
1 -74 82 0
1 -74 -84 0
1 93 71 0
1 93 -154 0
1 93 -79 0
1 93 77 0
1 -93 -92 0
1 -93 76 0
1 -92 -75 0
1 92 -31 0
1 -92 -93 0
1 92 -77 0
1 -92 78 0
1 -92 -86 0
1 -92 -106 0
1 -92 -71 0
1 -92 -76 0
1 -104 91 0
1 -104 -89 0
1 -104 86 0
1 -104 -105 0
1 104 81 0
1 105 31 0
1 105 104 0
1 105 -79 0
1 105 -89 0
1 105 86 0
1 -105 -108 0
1 105 166 0
1 105 158 0
1 105 -81 0
1 105 -97 0
1 -79 -99 0
1 79 93 0
1 79 94 0
1 79 -64 0
1 79 168 0
1 79 103 0
1 79 92 0
1 79 96 0
1 81 169 0
1 81 99 0
1 81 -104 0
1 -81 79 0
1 81 170 0
1 81 -171 0
1 -81 103 0
1 81 92 0
1 -81 172 0
1 -159 -161 0
1 -159 -104 0
1 -159 -93 0
1 -159 94 0
1 -159 -170 0
1 159 -105 0
1 -158 169 0
1 -158 -173 0
1 -158 104 0
1 -158 93 0
1 -158 170 0
1 158 174 0
1 -158 162 0
1 -158 -105 0
1 -158 96 0
1 -158 -175 0
1 99 85 0
1 99 95 0
1 99 89 0
1 -99 -103 0
1 99 86 0
1 99 -26 0
1 -99 -38 0
1 -99 -97 0
1 -103 91 0
1 103 -31 0
1 -103 99 0
1 -103 79 0
1 -103 -89 0
1 103 86 0
1 103 162 0
1 103 38 0
1 -103 97 0
1 -112 91 0
1 -112 -102 0
1 -112 -95 0
1 112 171 0
1 -112 176 0
1 112 -81 0
1 -171 91 0
1 171 112 0
1 171 -177 0
1 -171 -102 0
1 -171 174 0
1 171 -89 0
1 171 176 0
1 -171 81 0
1 89 -110 0
1 -89 91 0
1 89 112 0
1 -89 99 0
1 -89 -104 0
1 89 -178 0
1 -89 179 0
1 -89 -111 0
1 89 -171 0
1 -89 -78 0
1 -89 -103 0
1 89 180 0
1 -89 181 0
1 89 182 0
1 -91 112 0
1 91 -104 0
1 -91 178 0
1 -91 111 0
1 -91 -105 0
1 -95 -169 0
1 95 -112 0
1 95 99 0
1 95 -104 0
1 -95 170 0
1 95 -105 0
1 95 -181 0
1 -95 -97 0
1 95 -183 0
1 -97 -169 0
1 -97 99 0
1 -97 178 0
1 97 184 0
1 97 -170 0
1 97 -171 0
1 97 95 0
1 97 -181 0
1 97 76 0
1 -97 183 0
1 110 -91 0
1 110 -177 0
1 -110 102 0
1 -110 39 0
1 110 -98 0
1 -110 89 0
1 -110 -101 0
1 -110 36 0
1 -111 -110 0
1 -111 91 0
1 111 102 0
1 -111 98 0
1 -111 89 0
1 182 -91 0
1 -182 -177 0
1 -182 185 0
1 -182 89 0
1 -182 -186 0
1 -182 183 0
1 101 -112 0
1 -101 102 0
1 101 -187 0
1 101 188 0
1 101 179 0
1 101 111 0
1 101 -171 0
1 101 -26 0
1 -101 189 0
1 -101 -190 0
1 102 110 0
1 -102 191 0
1 102 -187 0
1 102 -192 0
1 -176 -112 0
1 176 177 0
1 -176 111 0
1 -176 171 0
1 176 -86 0
1 176 193 0
1 176 194 0
1 176 182 0
1 177 -110 0
1 -177 31 0
1 -177 -195 0
1 -177 187 0
1 -177 -178 0
1 -177 179 0
1 177 111 0
1 -177 176 0
1 177 194 0
1 -196 -102 0
1 -196 -185 0
1 -196 -181 0
1 192 197 0
1 192 -185 0
1 -192 -101 0
1 192 186 0
1 190 102 0
1 -190 194 0
1 188 -102 0
1 -188 197 0
1 188 101 0
1 109 185 0
1 109 -179 0
1 109 198 0
1 -109 199 0
1 109 196 0
1 185 200 0
1 -185 -188 0
1 185 -196 0
1 186 187 0
1 186 188 0
1 186 38 0
1 186 201 0
1 186 196 0
1 -186 182 0
1 -197 202 0
1 197 187 0
1 197 179 0
1 -197 198 0
1 197 -196 0
1 -203 119 0
1 203 204 0
1 203 113 0
1 -119 -205 0
1 119 115 0
1 -123 -124 0
1 -123 -206 0
1 123 204 0
1 123 207 0
1 123 -208 0
1 -124 207 0
1 124 51 0
1 -124 -205 0
1 -124 -206 0
1 124 204 0
1 -205 132 0
1 -205 -119 0
1 -205 209 0
1 205 130 0
1 205 -123 0
1 -205 -203 0
1 -209 133 0
1 -209 124 0
1 209 205 0
1 -209 210 0
1 211 -212 0
1 -211 123 0
1 -211 -203 0
1 -130 -114 0
1 130 133 0
1 -130 -205 0
1 130 -213 0
1 -130 -116 0
1 -130 -62 0
1 -133 114 0
1 -133 57 0
1 -133 -205 0
1 -133 -116 0
1 134 -214 0
1 134 -215 0
1 134 -132 0
1 134 205 0
1 134 213 0
1 -134 -216 0
1 134 -217 0
1 -134 -116 0
1 -134 -58 0
1 -132 215 0
1 132 59 0
1 -132 -213 0
1 -132 217 0
1 132 208 0
1 206 -218 0
1 206 -127 0
1 206 133 0
1 -206 219 0
1 206 -220 0
1 206 134 0
1 206 123 0
1 -206 -208 0
1 208 221 0
1 -208 -127 0
1 208 -220 0
1 208 129 0
1 -208 -134 0
1 208 123 0
1 -213 218 0
1 -213 -207 0
1 -213 -132 0
1 213 133 0
1 213 -124 0
1 -213 134 0
1 213 130 0
1 207 218 0
1 -207 132 0
1 -207 -213 0
1 207 134 0
1 129 -214 0
1 129 -118 0
1 129 125 0
1 -129 208 0
1 -127 -53 0
1 -127 -118 0
1 -127 -121 0
1 127 -129 0
1 127 125 0
1 -143 214 0
1 -143 -215 0
1 143 -222 0
1 -143 131 0
1 143 -121 0
1 -143 206 0
1 143 217 0
1 143 126 0
1 143 -208 0
1 222 -73 0
1 -222 -131 0
1 -222 128 0
1 -222 -121 0
1 -222 216 0
1 -222 -223 0
1 222 126 0
1 -222 -125 0
1 217 222 0
1 -217 127 0
1 217 132 0
1 -217 224 0
1 -217 -225 0
1 -217 226 0
1 217 151 0
1 -215 222 0
1 -215 227 0
1 -215 -132 0
1 -215 224 0
1 -215 129 0
1 216 -228 0
1 -216 -218 0
1 -216 -222 0
1 -216 -127 0
1 -216 -132 0
1 -216 229 0
1 216 143 0
1 -214 228 0
1 -214 -218 0
1 -214 -230 0
1 -214 127 0
1 214 132 0
1 -214 -231 0
1 -139 215 0
1 139 131 0
1 -139 -126 0
1 139 -125 0
1 -142 69 0
1 -142 218 0
1 142 -215 0
1 -142 -131 0
1 142 -121 0
1 -142 137 0
1 -142 -217 0
1 142 -126 0
1 142 -135 0
1 142 -138 0
1 -225 215 0
1 225 -128 0
1 225 -141 0
1 -225 -231 0
1 -225 -217 0
1 -225 -223 0
1 -225 -144 0
1 -225 -232 0
1 225 -138 0
1 -225 151 0
1 -151 228 0
1 -151 128 0
1 -151 141 0
1 151 -225 0
1 -151 223 0
1 151 -232 0
1 126 -142 0
1 -126 -222 0
1 126 128 0
1 -126 160 0
1 -126 -148 0
1 126 233 0
1 126 -117 0
1 126 -150 0
1 -128 -143 0
1 -128 -126 0
1 -128 156 0
1 223 -142 0
1 -223 -131 0
1 -223 234 0
1 223 -224 0
1 -223 -139 0
1 -223 143 0
1 223 -235 0
1 -223 -236 0
1 223 -226 0
1 223 -151 0
1 131 -142 0
1 -131 -237 0
1 -131 -236 0
1 131 -151 0
1 148 -56 0
1 -148 -128 0
1 -148 141 0
1 148 -145 0
1 148 -60 0
1 -148 126 0
1 148 150 0
1 -148 138 0
1 -150 56 0
1 150 128 0
1 -150 -238 0
1 150 141 0
1 -150 -145 0
1 -150 226 0
1 160 -239 0
1 160 -238 0
1 160 94 0
1 -160 -141 0
1 160 -234 0
1 -160 152 0
1 160 -144 0
1 160 126 0
1 -160 -232 0
1 160 240 0
1 156 128 0
1 156 -152 0
1 -156 60 0
1 -156 126 0
1 156 -96 0
1 -156 -236 0
1 156 -232 0
1 156 -240 0
1 -232 -164 0
1 -232 241 0
1 232 -166 0
1 -232 155 0
1 232 135 0
1 -232 151 0
1 141 154 0
1 141 -148 0
1 141 -155 0
1 141 156 0
1 -141 232 0
1 -144 238 0
1 144 160 0
1 144 -156 0
1 -238 160 0
1 238 -242 0
1 238 148 0
1 238 -225 0
1 238 144 0
1 -238 -241 0
1 238 -156 0
1 238 150 0
1 -238 -151 0
1 -154 239 0
1 -154 72 0
1 -154 93 0
1 154 -243 0
1 -154 -141 0
1 154 60 0
1 154 -147 0
1 154 155 0
1 -154 -232 0
1 155 56 0
1 155 -146 0
1 -155 -141 0
1 155 149 0
1 -155 -74 0
1 -155 -92 0
1 -155 -235 0
1 155 -232 0
1 -155 240 0
1 -164 244 0
1 -164 -153 0
1 164 245 0
1 -164 -149 0
1 -164 -157 0
1 -164 232 0
1 164 -240 0
1 -166 -239 0
1 166 -72 0
1 166 157 0
1 -166 246 0
1 -166 74 0
1 166 105 0
1 -239 -164 0
1 239 -160 0
1 239 149 0
1 239 247 0
1 239 -174 0
1 -239 -162 0
1 239 156 0
1 149 -239 0
1 -149 248 0
1 -149 -173 0
1 149 -161 0
1 -149 145 0
1 -149 -247 0
1 -149 174 0
1 149 -156 0
1 -240 249 0
1 240 248 0
1 240 250 0
1 -240 164 0
1 -240 152 0
1 -240 -247 0
1 240 251 0
1 240 241 0
1 -240 -155 0
1 240 156 0
1 240 -138 0
1 152 137 0
1 -152 247 0
1 152 251 0
1 152 241 0
1 -152 166 0
1 -152 -155 0
1 -152 156 0
1 161 239 0
1 161 -72 0
1 -161 153 0
1 161 159 0
1 161 149 0
1 -161 157 0
1 -161 -162 0
1 161 246 0
1 -161 -71 0
1 -162 -239 0
1 -162 -153 0
1 162 -72 0
1 -162 -68 0
1 -162 -159 0
1 162 -149 0
1 162 -103 0
1 -162 -246 0
1 162 -158 0
1 173 -239 0
1 -173 -165 0
1 -173 -252 0
1 173 157 0
1 173 246 0
1 -173 167 0
1 -173 -158 0
1 174 239 0
1 -174 244 0
1 -174 153 0
1 174 -165 0
1 -174 159 0
1 174 -171 0
1 -174 246 0
1 -174 167 0
1 174 158 0
1 -153 169 0
1 -153 173 0
1 -153 161 0
1 -153 -146 0
1 153 -164 0
1 153 -170 0
1 153 174 0
1 153 183 0
1 -246 -169 0
1 -246 -173 0
1 246 161 0
1 246 -253 0
1 246 -184 0
1 246 -170 0
1 -246 -162 0
1 246 254 0
1 246 166 0
1 -244 56 0
1 -244 161 0
1 244 255 0
1 -244 253 0
1 -157 173 0
1 157 -161 0
1 157 164 0
1 157 -256 0
1 157 247 0
1 -157 -60 0
1 157 162 0
1 157 166 0
1 -169 248 0
1 169 -153 0
1 169 165 0
1 -169 -79 0
1 169 -95 0
1 -169 167 0
1 -169 -97 0
1 -170 252 0
1 -170 95 0
1 170 247 0
1 -170 -246 0
1 -170 167 0
1 -170 -81 0
1 183 -153 0
1 -183 165 0
1 -183 -252 0
1 183 257 0
1 183 184 0
1 -183 -95 0
1 -183 246 0
1 -183 182 0
1 184 -252 0
1 -184 257 0
1 -184 168 0
1 184 256 0
1 -184 -172 0
1 -252 173 0
1 252 68 0
1 252 258 0
1 252 259 0
1 252 -178 0
1 252 -184 0
1 252 260 0
1 252 183 0
1 163 258 0
1 -163 252 0
1 -163 -178 0
1 163 -170 0
1 165 173 0
1 165 261 0
1 -165 262 0
1 165 253 0
1 165 -263 0
1 167 -264 0
1 -167 262 0
1 167 -170 0
1 167 -174 0
1 167 74 0
1 167 265 0
1 167 -260 0
1 -167 183 0
1 181 95 0
1 -181 -89 0
1 181 -163 0
1 181 196 0
1 181 -172 0
1 -181 -97 0
1 -178 -91 0
1 -178 252 0
1 -178 -257 0
1 -178 253 0
1 178 168 0
1 178 -95 0
1 178 -176 0
1 178 163 0
1 -178 -181 0
1 -178 -97 0
1 194 -266 0
1 194 258 0
1 194 252 0
1 -194 -257 0
1 -194 180 0
1 194 -176 0
1 194 163 0
1 194 -190 0
1 194 -175 0
1 -194 -263 0
1 -258 267 0
1 -258 -177 0
1 258 262 0
1 -258 -175 0
1 258 176 0
1 168 -268 0
1 168 -202 0
1 168 -187 0
1 -168 258 0
1 168 -178 0
1 168 -184 0
1 168 194 0
1 168 -181 0
1 -172 202 0
1 172 258 0
1 -172 178 0
1 172 -184 0
1 -172 -81 0
1 -172 -181 0
1 172 183 0
1 -257 -268 0
1 257 -184 0
1 -257 175 0
1 -257 -194 0
1 -257 181 0
1 257 -183 0
1 175 264 0
1 175 258 0
1 -175 -260 0
1 175 -194 0
1 -175 -269 0
1 175 -181 0
1 193 -266 0
1 -193 177 0
1 193 102 0
1 193 168 0
1 193 270 0
1 -193 101 0
1 -193 172 0
1 -187 -266 0
1 187 -177 0
1 187 264 0
1 -187 270 0
1 187 -193 0
1 271 266 0
1 -271 -202 0
1 -271 180 0
1 271 -186 0
1 271 172 0
1 -202 266 0
1 202 168 0
1 202 -172 0
1 -180 272 0
1 180 -266 0
1 -180 -202 0
1 -180 273 0
1 180 89 0
1 180 271 0
1 180 193 0
1 180 -194 0
1 266 272 0
1 266 274 0
1 -266 91 0
1 266 200 0
1 -266 -187 0
1 -266 275 0
1 -266 -180 0
1 -266 271 0
1 266 194 0
1 -270 272 0
1 270 267 0
1 270 -268 0
1 270 273 0
1 -270 -271 0
1 -270 -194 0
1 267 202 0
1 267 270 0
1 267 276 0
1 -267 -271 0
1 267 97 0
1 198 -200 0
1 -198 -195 0
1 198 -197 0
1 -198 185 0
1 -198 -276 0
1 198 277 0
1 198 189 0
1 -198 -186 0
1 198 109 0
1 200 191 0
1 -200 185 0
1 -200 -198 0
1 200 -277 0
1 200 -189 0
1 -275 274 0
1 275 191 0
1 275 -278 0
1 275 -189 0
1 -274 -279 0
1 -274 -195 0
1 274 191 0
1 274 275 0
1 -274 -180 0
1 -274 -277 0
1 274 189 0
1 -274 201 0
1 -189 202 0
1 -189 -280 0
1 -189 -281 0
1 -189 -275 0
1 -189 -271 0
1 189 -101 0
1 -189 282 0
1 189 283 0
1 191 -200 0
1 191 202 0
1 191 -102 0
1 -191 281 0
1 191 -198 0
1 -191 -271 0
1 -191 -282 0
1 191 -283 0
1 -277 -274 0
1 -277 -202 0
1 277 284 0
1 277 -273 0
1 277 -198 0
1 277 -176 0
1 277 271 0
1 -277 285 0
1 195 -272 0
1 195 177 0
1 195 -202 0
1 -195 284 0
1 195 275 0
1 281 -191 0
1 -281 278 0
1 -281 283 0
1 -281 -189 0
1 281 199 0
1 -283 -272 0
1 -283 278 0
1 -283 -201 0
1 -283 -199 0
1 280 191 0
1 280 -278 0
1 -280 286 0
1 280 -284 0
1 280 189 0
1 280 201 0
1 -282 191 0
1 -282 -278 0
1 -282 280 0
1 -282 189 0
1 282 -201 0
1 -282 -285 0
1 199 -281 0
1 -199 -109 0
1 -199 282 0
1 199 283 0
1 -286 274 0
1 -286 185 0
1 286 -280 0
1 -286 -281 0
1 -286 199 0
1 286 283 0
1 -201 -274 0
1 -201 280 0
1 201 -281 0
1 -201 -186 0
1 -201 282 0
1 -201 -283 0
1 278 197 0
1 278 281 0
1 -278 275 0
1 278 283 0
1 220 212 0
1 220 -213 0
1 -220 139 0
1 220 216 0
1 220 -287 0
1 -220 210 0
1 -220 -208 0
1 -218 212 0
1 218 -213 0
1 218 206 0
1 -218 220 0
1 218 -287 0
1 218 -207 0
1 -231 -228 0
1 -231 -214 0
1 231 -212 0
1 231 288 0
1 231 -219 0
1 228 -214 0
1 228 -288 0
1 -228 -231 0
1 228 216 0
1 228 -289 0
1 290 228 0
1 -290 -205 0
1 -290 -224 0
1 -210 224 0
1 -210 236 0
1 210 291 0
1 210 226 0
1 212 -211 0
1 -212 -287 0
1 287 228 0
1 -287 -212 0
1 287 -292 0
1 287 220 0
1 224 -221 0
1 -224 214 0
1 224 215 0
1 224 289 0
1 224 290 0
1 -224 148 0
1 -224 288 0
1 226 214 0
1 -226 -215 0
1 226 -224 0
1 -226 219 0
1 -226 217 0
1 -226 289 0
1 -234 -230 0
1 234 227 0
1 234 160 0
1 -234 -290 0
1 -234 -288 0
1 -234 -229 0
1 -234 210 0
1 -236 221 0
1 236 -230 0
1 -236 131 0
1 -236 -234 0
1 236 156 0
1 -236 -289 0
1 -219 -293 0
1 219 224 0
1 -219 -206 0
1 -221 -293 0
1 221 234 0
1 -221 224 0
1 -221 -231 0
1 -221 -294 0
1 -221 -235 0
1 221 -236 0
1 -221 208 0
1 -288 -228 0
1 -288 -226 0
1 -289 234 0
1 -289 224 0
1 289 288 0
1 -289 -231 0
1 289 294 0
1 -289 236 0
1 -289 226 0
1 289 -295 0
1 -243 230 0
1 243 219 0
1 243 -229 0
1 -243 235 0
1 -235 221 0
1 -235 -227 0
1 235 -131 0
1 235 126 0
1 235 -144 0
1 -235 229 0
1 -235 -223 0
1 235 155 0
1 -245 221 0
1 -245 296 0
1 245 -237 0
1 -245 -164 0
1 -245 297 0
1 -245 -238 0
1 245 298 0
1 298 -221 0
1 -298 -237 0
1 -298 -245 0
1 -298 297 0
1 -298 -299 0
1 298 144 0
1 299 300 0
1 -299 -227 0
1 299 250 0
1 299 234 0
1 299 -301 0
1 -299 251 0
1 299 -241 0
1 299 235 0
1 -227 300 0
1 227 -250 0
1 -227 -302 0
1 -227 245 0
1 227 243 0
1 227 234 0
1 -227 301 0
1 -227 251 0
1 227 -241 0
1 227 298 0
1 -227 236 0
1 -229 -230 0
1 -229 -303 0
1 -229 -293 0
1 -229 243 0
1 -229 304 0
1 229 -298 0
1 230 293 0
1 -230 -243 0
1 230 -234 0
1 -230 301 0
1 -230 229 0
1 -230 -304 0
1 -230 -235 0
1 250 293 0
1 -250 297 0
1 -250 -152 0
1 -250 299 0
1 250 -296 0
1 250 144 0
1 -250 240 0
1 241 -227 0
1 -241 -297 0
1 241 238 0
1 241 -162 0
1 241 -144 0
1 241 -240 0
1 -305 173 0
1 -305 227 0
1 -305 -242 0
1 -305 306 0
1 -305 251 0
1 -251 305 0
1 -251 -242 0
1 251 -174 0
1 -251 299 0
1 -251 233 0
1 -251 307 0
1 233 -308 0
1 -233 -248 0
1 -233 -250 0
1 -233 297 0
1 233 309 0
1 -233 251 0
1 233 126 0
1 233 -310 0
1 297 -305 0
1 297 250 0
1 -297 128 0
1 -297 -245 0
1 297 311 0
1 -297 256 0
1 -297 -247 0
1 297 251 0
1 297 -298 0
1 -297 -233 0
1 -297 312 0
1 -296 -300 0
1 296 305 0
1 -296 -245 0
1 -296 -309 0
1 296 -251 0
1 296 -241 0
1 -296 313 0
1 -296 -312 0
1 237 300 0
1 237 296 0
1 -237 245 0
1 -237 -309 0
1 -237 -301 0
1 -237 -298 0
1 248 -169 0
1 248 242 0
1 248 -149 0
1 248 -307 0
1 247 -248 0
1 -247 244 0
1 -247 297 0
1 247 -242 0
1 -247 -306 0
1 -247 -301 0
1 247 233 0
1 247 -307 0
1 -247 -240 0
1 -308 -314 0
1 -308 306 0
1 308 -256 0
1 308 315 0
1 308 -233 0
1 256 -244 0
1 256 -316 0
1 -256 317 0
1 318 -305 0
1 -318 319 0
1 318 262 0
1 318 253 0
1 318 -306 0
1 -318 247 0
1 -318 -251 0
1 -318 320 0
1 -318 -263 0
1 -306 -308 0
1 -306 -305 0
1 306 262 0
1 306 256 0
1 307 -308 0
1 307 -242 0
1 307 247 0
1 307 321 0
1 307 -144 0
1 307 -312 0
1 -242 308 0
1 242 -248 0
1 -242 305 0
1 -242 -319 0
1 -242 238 0
1 242 -322 0
1 -242 -309 0
1 -242 -247 0
1 242 -307 0
1 -242 312 0
1 -253 249 0
1 253 323 0
1 -253 -153 0
1 -253 165 0
1 253 306 0
1 253 309 0
1 -253 -316 0
1 -253 246 0
1 -253 -318 0
1 -263 255 0
1 263 324 0
1 -263 165 0
1 -263 -306 0
1 -263 -315 0
1 263 -325 0
1 263 326 0
1 -262 258 0
1 -262 327 0
1 262 306 0
1 262 316 0
1 262 -315 0
1 -262 -325 0
1 -262 254 0
1 -323 -308 0
1 323 328 0
1 323 329 0
1 -323 -264 0
1 -323 -253 0
1 -323 256 0
1 -323 -330 0
1 -315 -323 0
1 -315 264 0
1 315 -253 0
1 -315 256 0
1 -315 -149 0
1 -315 -331 0
1 -315 263 0
1 249 -332 0
1 -249 319 0
1 249 262 0
1 -249 253 0
1 249 -256 0
1 249 316 0
1 249 333 0
1 -249 -320 0
1 249 -263 0
1 -316 -308 0
1 316 249 0
1 316 -334 0
1 -316 262 0
1 -316 253 0
1 -316 152 0
1 316 -256 0
1 -316 -335 0
1 -316 320 0
1 316 -263 0
1 -260 -324 0
1 260 -252 0
1 260 -254 0
1 -260 -163 0
1 -260 -320 0
1 -264 -323 0
1 264 -163 0
1 264 -255 0
1 -264 165 0
1 264 252 0
1 264 325 0
1 -264 254 0
1 330 255 0
1 330 324 0
1 330 325 0
1 -330 333 0
1 330 -175 0
1 336 255 0
1 336 334 0
1 -336 259 0
1 336 254 0
1 336 265 0
1 324 337 0
1 -324 -268 0
1 324 -262 0
1 -324 338 0
1 -324 339 0
1 324 260 0
1 324 263 0
1 -254 -268 0
1 254 264 0
1 254 339 0
1 -254 -246 0
1 -254 -330 0
1 254 -260 0
1 254 263 0
1 -255 -337 0
1 255 244 0
1 255 -264 0
1 -255 262 0
1 255 -338 0
1 255 331 0
1 255 330 0
1 -255 260 0
1 -325 329 0
1 -325 -255 0
1 -325 264 0
1 325 262 0
1 -325 338 0
1 325 -157 0
1 325 -340 0
1 325 -330 0
1 -325 -260 0
1 -325 -263 0
1 276 268 0
1 276 -261 0
1 276 259 0
1 -276 198 0
1 276 -265 0
1 276 341 0
1 268 -329 0
1 -268 324 0
1 -268 257 0
1 -268 168 0
1 -268 270 0
1 268 254 0
1 268 -265 0
1 -268 341 0
1 268 172 0
1 339 267 0
1 -339 261 0
1 -339 -259 0
1 -339 -270 0
1 -339 340 0
1 -339 -341 0
1 -339 342 0
1 -279 -343 0
1 279 324 0
1 -279 261 0
1 -279 -344 0
1 279 -254 0
1 279 -265 0
1 -279 -341 0
1 279 269 0
1 259 272 0
1 -259 -279 0
1 259 -336 0
1 259 -339 0
1 -259 276 0
1 259 341 0
1 259 -285 0
1 341 272 0
1 -341 -268 0
1 -341 336 0
1 -341 -339 0
1 341 163 0
1 261 345 0
1 -261 -339 0
1 261 -276 0
1 -261 -330 0
1 -261 -265 0
1 265 279 0
1 265 268 0
1 -265 336 0
1 -265 -345 0
1 -265 -339 0
1 265 -276 0
1 -265 167 0
1 -273 -267 0
1 273 266 0
1 -273 -259 0
1 273 -346 0
1 -273 -344 0
1 273 -270 0
1 273 338 0
1 -273 277 0
1 -272 -195 0
1 -272 259 0
1 272 -344 0
1 272 273 0
1 272 -270 0
1 -272 341 0
1 -284 195 0
1 284 341 0
1 -284 -259 0
1 284 -346 0
1 284 -280 0
1 284 344 0
1 284 345 0
1 284 -277 0
1 -284 -342 0
1 -284 285 0
1 285 195 0
1 285 -259 0
1 -285 346 0
1 -285 -344 0
1 285 -341 0
1 285 -269 0
1 -285 -342 0
1 344 -272 0
1 344 -279 0
1 -344 284 0
1 344 -342 0
1 344 -285 0
1 342 -273 0
1 -346 -272 0
1 -346 -279 0
1 -346 -284 0
1 -346 -269 0
1 346 -339 0
1 -346 -285 0
1 -269 273 0
1 -269 339 0
1 -269 175 0
1 -293 250 0
1 293 347 0
1 -293 288 0
1 293 -219 0
1 293 -229 0
1 293 -292 0
1 293 -291 0
1 -293 -289 0
1 -294 347 0
1 -294 -288 0
1 294 -291 0
1 294 289 0
1 303 -348 0
1 303 -230 0
1 -303 -305 0
1 -303 347 0
1 303 349 0
1 303 -350 0
1 -303 -351 0
1 303 -291 0
1 304 -347 0
1 -304 351 0
1 304 -251 0
1 304 295 0
1 -349 -314 0
1 -349 300 0
1 349 303 0
1 349 290 0
1 349 352 0
1 349 -301 0
1 349 -291 0
1 -291 -314 0
1 -291 -300 0
1 291 349 0
1 -291 210 0
1 -292 -293 0
1 292 -347 0
1 292 304 0
1 292 -287 0
1 -300 348 0
1 300 230 0
1 300 -237 0
1 -300 -349 0
1 -300 -350 0
1 300 301 0
1 300 -229 0
1 300 -296 0
1 -300 -295 0
1 -301 -247 0
1 301 291 0
1 314 -348 0
1 -314 -353 0
1 -314 -302 0
1 -314 -349 0
1 -314 317 0
1 314 -350 0
1 -314 351 0
1 -314 354 0
1 -314 296 0
1 314 291 0
1 -317 314 0
1 -317 353 0
1 317 -237 0
1 -317 349 0
1 317 256 0
1 -317 351 0
1 317 355 0
1 317 -295 0
1 -351 -309 0
1 -351 219 0
1 -351 -301 0
1 351 356 0
1 -351 -304 0
1 -351 -312 0
1 348 221 0
1 348 314 0
1 348 -357 0
1 348 304 0
1 -348 -358 0
1 348 326 0
1 348 312 0
1 350 -314 0
1 350 -303 0
1 -350 -301 0
1 350 -359 0
1 350 304 0
1 -350 -295 0
1 -295 -314 0
1 -295 360 0
1 295 -300 0
1 -295 303 0
1 295 -289 0
1 295 -357 0
1 -295 -317 0
1 -295 350 0
1 -295 358 0
1 -312 348 0
1 -312 353 0
1 -312 237 0
1 -312 297 0
1 -312 -351 0
1 309 353 0
1 -309 -242 0
1 309 253 0
1 309 351 0
1 -309 -354 0
1 -309 355 0
1 -309 -233 0
1 309 307 0
1 -326 -348 0
1 -326 302 0
1 326 -327 0
1 -326 351 0
1 326 355 0
1 -326 -313 0
1 326 307 0
1 -326 -263 0
1 -327 353 0
1 327 -242 0
1 -327 -262 0
1 327 351 0
1 -327 -313 0
1 -355 -314 0
1 -355 -361 0
1 355 -334 0
1 -355 319 0
1 -355 -309 0
1 355 -317 0
1 -302 -362 0
1 -302 319 0
1 -302 327 0
1 302 -309 0
1 302 -355 0
1 -302 333 0
1 302 326 0
1 354 -362 0
1 -354 327 0
1 354 309 0
1 354 -363 0
1 -354 -364 0
1 354 312 0
1 353 314 0
1 353 -365 0
1 353 366 0
1 -353 -327 0
1 353 309 0
1 -353 -364 0
1 -320 -249 0
1 320 -302 0
1 320 -319 0
1 -320 -311 0
1 -320 242 0
1 320 313 0
1 -320 355 0
1 -320 -260 0
1 -320 307 0
1 -319 -249 0
1 -319 302 0
1 319 367 0
1 -319 357 0
1 -319 311 0
1 -319 -306 0
1 319 320 0
1 319 310 0
1 319 -318 0
1 -333 302 0
1 333 334 0
1 -333 367 0
1 333 311 0
1 -333 355 0
1 -333 368 0
1 334 302 0
1 -334 367 0
1 -334 311 0
1 334 -355 0
1 334 -310 0
1 334 321 0
1 -310 343 0
1 -310 329 0
1 310 311 0
1 -310 327 0
1 310 369 0
1 310 -331 0
1 310 333 0
1 311 370 0
1 311 -334 0
1 311 297 0
1 -311 -340 0
1 311 -333 0
1 -311 320 0
1 -311 -310 0
1 311 326 0
1 313 370 0
1 -313 362 0
1 313 296 0
1 -313 -367 0
1 313 -363 0
1 313 -326 0
1 -367 370 0
1 367 -362 0
1 -367 -334 0
1 -367 237 0
1 -367 -319 0
1 367 -369 0
1 367 371 0
1 -367 -363 0
1 -367 -333 0
1 367 -313 0
1 331 249 0
1 331 -323 0
1 331 255 0
1 331 -329 0
1 331 276 0
1 331 310 0
1 -331 -368 0
1 329 268 0
1 -329 -255 0
1 -329 -362 0
1 329 311 0
1 -329 322 0
1 329 -316 0
1 -329 -315 0
1 -329 331 0
1 -340 -328 0
1 340 322 0
1 340 372 0
1 -340 368 0
1 343 -332 0
1 343 -279 0
1 -343 -373 0
1 343 311 0
1 343 -322 0
1 343 374 0
1 -343 -335 0
1 -343 -372 0
1 -343 325 0
1 343 368 0
1 -368 -337 0
1 368 329 0
1 -368 374 0
1 368 340 0
1 368 331 0
1 -368 -333 0
1 -368 -375 0
1 -374 -343 0
1 -374 -329 0
1 -374 -306 0
1 -374 -345 0
1 374 338 0
1 374 340 0
1 374 333 0
1 -321 -370 0
1 -321 -329 0
1 -321 -322 0
1 -321 -376 0
1 321 -369 0
1 322 334 0
1 322 -340 0
1 -322 -333 0
1 -338 337 0
1 338 332 0
1 -338 -328 0
1 338 -324 0
1 -338 374 0
1 338 -335 0
1 338 273 0
1 338 254 0
1 -338 265 0
1 338 368 0
1 -337 332 0
1 337 -328 0
1 337 324 0
1 -337 -374 0
1 337 338 0
1 337 -254 0
1 345 332 0
1 -345 -328 0
1 -345 -284 0
1 345 265 0
1 -345 -375 0
1 -375 335 0
1 -375 -265 0
1 375 -285 0
1 -328 337 0
1 -328 323 0
1 -328 343 0
1 328 -345 0
1 328 -340 0
1 328 375 0
1 -372 337 0
1 -372 -328 0
1 -372 338 0
1 372 -340 0
1 332 249 0
1 332 -340 0
1 332 -375 0
1 335 -337 0
1 335 332 0
1 335 -343 0
1 335 -345 0
1 335 -338 0
1 -335 -375 0
1 358 377 0
1 -358 -348 0
1 358 -353 0
1 -358 -352 0
1 -358 -350 0
1 -358 351 0
1 358 354 0
1 -358 320 0
1 -358 378 0
1 358 -295 0
1 357 -348 0
1 -357 -353 0
1 357 -352 0
1 -357 350 0
1 -357 351 0
1 357 -378 0
1 -364 366 0
1 -364 379 0
1 364 -359 0
1 364 -378 0
1 366 -360 0
1 -366 380 0
1 -366 -353 0
1 -366 379 0
1 -366 354 0
1 366 364 0
1 -366 -378 0
1 -352 -373 0
1 352 -366 0
1 352 378 0
1 352 -349 0
1 352 364 0
1 -378 -362 0
1 378 366 0
1 -378 352 0
1 -378 -371 0
1 378 -363 0
1 378 -364 0
1 379 366 0
1 379 347 0
1 -379 364 0
1 377 -379 0
1 377 358 0
1 363 360 0
1 363 380 0
1 363 353 0
1 -363 302 0
1 -363 -359 0
1 -363 -356 0
1 363 -355 0
1 362 -360 0
1 -362 380 0
1 362 353 0
1 -362 367 0
1 362 -359 0
1 362 -354 0
1 362 -355 0
1 -362 -363 0
1 371 380 0
1 -371 -365 0
1 -371 367 0
1 371 -352 0
1 371 -359 0
1 -371 -356 0
1 -371 381 0
1 -371 -361 0
1 -371 378 0
1 373 -360 0
1 373 380 0
1 -373 -365 0
1 -373 -356 0
1 373 -371 0
1 373 -381 0
1 373 361 0
1 373 -313 0
1 373 -378 0
1 -356 -380 0
1 356 -373 0
1 356 376 0
1 356 -351 0
1 -356 371 0
1 356 363 0
1 -380 382 0
1 380 -370 0
1 380 -373 0
1 -380 362 0
1 380 369 0
1 -380 371 0
1 359 -364 0
1 -360 373 0
1 -360 366 0
1 -360 359 0
1 360 364 0
1 -360 295 0
1 369 383 0
1 369 -311 0
1 -369 322 0
1 -369 338 0
1 369 381 0
1 -369 310 0
1 -370 337 0
1 -370 -380 0
1 370 -365 0
1 370 383 0
1 370 -322 0
1 -370 381 0
1 370 361 0
1 -370 313 0
1 -376 382 0
1 -376 -383 0
1 -376 -322 0
1 376 -356 0
1 -376 361 0
1 -382 -365 0
1 -382 322 0
1 -382 376 0
1 -361 382 0
1 361 -373 0
1 -361 -383 0
1 -361 -376 0
1 -361 -355 0
1 -383 382 0
1 -383 -373 0
1 383 -376 0
1 -383 -361 0
1 -381 -369 0
1 -381 371 0
1 -365 370 0
1 -365 -353 0
1 -365 -376 0
1 365 -369 0
1 -365 381 0
